************************************************************************
file with basedata            : mm15_.bas
initial value random generator: 1311655734
************************************************************************
projects                      :  1
jobs (incl. supersource/sink ):  12
horizon                       :  80
RESOURCES
  - renewable                 :  2   R
  - nonrenewable              :  2   N
  - doubly constrained        :  0   D
************************************************************************
PROJECT INFORMATION:
pronr.  #jobs rel.date duedate tardcost  MPM-Time
    1     10      0       11        4       11
************************************************************************
PRECEDENCE RELATIONS:
jobnr.    #modes  #successors   successors
   0        1          3           1   2   3
   1        3          2           8  10
   2        3          1           4
   3        3          3           5   6   8
   4        3          2           9  10
   5        3          1           7
   6        3          1           7
   7        3          2           9  10
   8        3          1          11
   9        3          1          11
  10        3          1          11
  11        1          0        
************************************************************************
REQUESTS/DURATIONS:
jobnr. mode duration  R 1  R 2  R 3  R 4  E(W 1)  E(W 2)
------------------------------------------------------------------------
  0      1     0       0    0    0    0     0       0
  1      1     5       8    0    5    8    40      65
  2      1     1       0    1    4    4     2       8
  3      1     1       0    4    4    4     4       8
  4      1     2       0    3    3    2     6      10
  5      1     5       4    0    6    3    20      45
  6      1     5       5    0   10    5    25      75
  7      1     1       0    6    2    2     6       4
  8      1     2       0    7    6    9    14      30
  9      1     4       0    3    8    5    12      52
 10      1     2       0    7    7    9    14      32
 11      1     0       0    0    0    0     0       0
************************************************************************
RESOURCEAVAILABILITIES:
  R 1  R 2
   27   96
************************************************************************
RESOURCE LIMITS:
jobnr.  l(R 1)  u(R 1)  l(R 2)  u(R 2)
------------------------------------------------------------------------
  0        0       0       0       0
  1        4       8       7      13
  2        1       2       4       8
  3        2       4       4       8
  4        2       3       3       5
  5        2       4       5       9
  6        3       5       8      15
  7        3       6       2       4
  8        4       7       8      15
  9        2       3       7      13
 10        4       7       9      16
 11        0       0       0       0
************************************************************************
SCENARIOS:
------------------------------------------------------------------------
RESOURCE k = 1
s = 1: (0, 49, 3, 4, 9, 30, 24, 5, 12, 10, 14, 0)
s = 2: (0, 33, 2, 6, 7, 25, 23, 5, 14, 10, 14, 0)
s = 3: (0, 36, 2, 6, 4, 16, 34, 4, 11, 10, 16, 0)
s = 4: (0, 35, 3, 3, 6, 12, 25, 7, 18, 13, 15, 0)
s = 5: (0, 51, 3, 4, 9, 39, 22, 6, 21, 16, 19, 0)
s = 6: (0, 51, 2, 4, 7, 11, 28, 9, 15, 13, 14, 0)
s = 7: (0, 32, 3, 5, 6, 13, 37, 7, 16, 10, 13, 0)
s = 8: (0, 32, 3, 5, 4, 17, 20, 5, 18, 11, 15, 0)
s = 9: (0, 30, 3, 3, 8, 15, 13, 7, 14, 20, 8, 0)
s = 10: (0, 35, 2, 6, 5, 23, 19, 7, 12, 12, 16, 0)
s = 11: (0, 39, 3, 7, 6, 13, 19, 6, 11, 12, 18, 0)
s = 12: (0, 43, 2, 5, 7, 23, 30, 5, 23, 15, 12, 0)
s = 13: (0, 33, 3, 4, 6, 20, 18, 6, 15, 14, 16, 0)
s = 14: (0, 37, 2, 6, 5, 20, 24, 5, 24, 9, 18, 0)
s = 15: (0, 47, 2, 6, 6, 30, 19, 4, 17, 14, 8, 0)
s = 16: (0, 37, 3, 4, 5, 19, 24, 11, 11, 10, 18, 0)
s = 17: (0, 48, 3, 4, 6, 19, 19, 8, 12, 8, 18, 0)
s = 18: (0, 44, 3, 6, 5, 16, 31, 7, 12, 8, 15, 0)
s = 19: (0, 30, 2, 5, 8, 23, 35, 9, 20, 14, 13, 0)
s = 20: (0, 24, 3, 4, 9, 18, 39, 5, 15, 9, 16, 0)
s = 21: (0, 46, 3, 5, 5, 15, 36, 7, 13, 15, 20, 0)
s = 22: (0, 61, 3, 5, 7, 27, 17, 8, 16, 12, 17, 0)
s = 23: (0, 37, 4, 8, 8, 15, 29, 8, 14, 10, 12, 0)
s = 24: (0, 42, 2, 5, 5, 20, 21, 7, 13, 14, 17, 0)
s = 25: (0, 40, 3, 4, 4, 21, 18, 6, 12, 14, 10, 0)
s = 26: (0, 26, 2, 4, 6, 17, 37, 5, 22, 20, 16, 0)
s = 27: (0, 42, 3, 4, 6, 21, 30, 6, 10, 9, 16, 0)
s = 28: (0, 27, 3, 4, 6, 19, 25, 4, 10, 12, 17, 0)
s = 29: (0, 53, 3, 5, 5, 21, 32, 8, 13, 10, 21, 0)
s = 30: (0, 48, 3, 3, 6, 12, 20, 8, 16, 10, 15, 0)
s = 31: (0, 44, 3, 4, 6, 23, 14, 8, 16, 8, 14, 0)
s = 32: (0, 26, 2, 3, 5, 17, 35, 6, 14, 13, 14, 0)
s = 33: (0, 50, 2, 4, 6, 20, 18, 7, 11, 8, 14, 0)
s = 34: (0, 35, 2, 7, 6, 30, 32, 8, 13, 12, 11, 0)
s = 35: (0, 34, 2, 5, 7, 24, 17, 6, 14, 13, 14, 0)
s = 36: (0, 28, 3, 4, 5, 16, 31, 8, 18, 14, 12, 0)
s = 37: (0, 37, 3, 3, 7, 22, 25, 10, 11, 7, 11, 0)
s = 38: (0, 33, 2, 3, 8, 21, 21, 8, 12, 13, 9, 0)
s = 39: (0, 39, 2, 3, 7, 23, 25, 10, 17, 10, 15, 0)
s = 40: (0, 61, 2, 5, 6, 21, 19, 4, 14, 10, 17, 0)
s = 41: (0, 52, 2, 5, 6, 20, 30, 5, 11, 10, 11, 0)
s = 42: (0, 38, 2, 6, 4, 24, 34, 8, 12, 9, 19, 0)
s = 43: (0, 59, 2, 4, 6, 12, 30, 6, 10, 8, 16, 0)
s = 44: (0, 26, 4, 7, 8, 20, 16, 6, 14, 15, 12, 0)
s = 45: (0, 47, 3, 4, 4, 31, 21, 5, 19, 16, 10, 0)
s = 46: (0, 49, 3, 4, 7, 14, 27, 5, 8, 13, 13, 0)
s = 47: (0, 48, 3, 4, 6, 21, 21, 6, 11, 9, 11, 0)
s = 48: (0, 38, 2, 3, 9, 21, 37, 7, 14, 11, 20, 0)
s = 49: (0, 41, 2, 7, 5, 13, 30, 8, 15, 9, 20, 0)
s = 50: (0, 50, 2, 4, 7, 17, 16, 5, 19, 8, 15, 0)
s = 51: (0, 34, 3, 6, 5, 20, 21, 6, 20, 8, 20, 0)
s = 52: (0, 40, 2, 6, 4, 22, 15, 7, 10, 18, 16, 0)
s = 53: (0, 45, 2, 3, 6, 17, 17, 9, 17, 18, 15, 0)
s = 54: (0, 24, 2, 3, 6, 28, 31, 8, 12, 12, 11, 0)
s = 55: (0, 33, 2, 4, 4, 30, 18, 6, 12, 14, 8, 0)
s = 56: (0, 44, 2, 4, 8, 12, 25, 6, 14, 13, 17, 0)
s = 57: (0, 50, 3, 4, 6, 17, 20, 9, 11, 10, 12, 0)
s = 58: (0, 57, 2, 4, 5, 24, 17, 6, 13, 9, 21, 0)
s = 59: (0, 24, 2, 3, 5, 26, 20, 8, 17, 9, 15, 0)
s = 60: (0, 29, 2, 4, 5, 25, 18, 6, 13, 14, 9, 0)
s = 61: (0, 33, 3, 6, 6, 14, 42, 9, 19, 11, 12, 0)
s = 62: (0, 38, 3, 4, 8, 20, 23, 6, 22, 14, 15, 0)
s = 63: (0, 38, 2, 4, 5, 20, 28, 6, 17, 17, 13, 0)
s = 64: (0, 37, 2, 3, 8, 24, 17, 5, 13, 18, 11, 0)
s = 65: (0, 26, 2, 6, 4, 18, 19, 6, 11, 14, 10, 0)
s = 66: (0, 48, 3, 4, 8, 18, 17, 4, 20, 13, 19, 0)
s = 67: (0, 27, 2, 3, 5, 22, 23, 5, 8, 9, 13, 0)
s = 68: (0, 29, 2, 3, 4, 30, 19, 8, 11, 13, 15, 0)
s = 69: (0, 27, 3, 5, 5, 24, 26, 6, 16, 12, 9, 0)
s = 70: (0, 27, 3, 4, 10, 18, 21, 9, 12, 8, 12, 0)
s = 71: (0, 47, 2, 3, 7, 27, 19, 8, 12, 17, 14, 0)
s = 72: (0, 31, 3, 4, 4, 33, 35, 7, 19, 13, 13, 0)
s = 73: (0, 42, 3, 3, 5, 17, 17, 7, 9, 12, 17, 0)
s = 74: (0, 65, 3, 5, 5, 15, 19, 6, 13, 11, 9, 0)
s = 75: (0, 43, 3, 5, 4, 20, 14, 5, 14, 7, 14, 0)
s = 76: (0, 41, 3, 6, 8, 19, 29, 7, 11, 17, 22, 0)
s = 77: (0, 52, 2, 6, 7, 26, 24, 5, 20, 12, 13, 0)
s = 78: (0, 42, 3, 6, 4, 16, 37, 7, 12, 11, 19, 0)
s = 79: (0, 34, 2, 6, 8, 19, 32, 6, 18, 8, 20, 0)
s = 80: (0, 38, 2, 4, 7, 18, 29, 8, 11, 17, 11, 0)
s = 81: (0, 40, 2, 4, 4, 19, 23, 9, 12, 16, 10, 0)
s = 82: (0, 49, 2, 5, 8, 29, 26, 6, 16, 11, 12, 0)
s = 83: (0, 30, 2, 4, 5, 19, 37, 7, 16, 11, 15, 0)
s = 84: (0, 44, 2, 5, 9, 12, 26, 6, 11, 8, 10, 0)
s = 85: (0, 34, 2, 4, 4, 32, 34, 4, 23, 8, 15, 0)
s = 86: (0, 58, 2, 4, 8, 15, 19, 6, 9, 9, 21, 0)
s = 87: (0, 69, 2, 5, 6, 20, 19, 6, 14, 9, 9, 0)
s = 88: (0, 37, 2, 3, 5, 24, 25, 5, 12, 12, 18, 0)
s = 89: (0, 45, 2, 5, 6, 15, 33, 7, 13, 10, 14, 0)
s = 90: (0, 48, 3, 5, 8, 20, 20, 4, 14, 12, 11, 0)
s = 91: (0, 34, 3, 3, 4, 13, 26, 5, 10, 10, 17, 0)
s = 92: (0, 42, 2, 5, 7, 26, 15, 5, 20, 11, 10, 0)
s = 93: (0, 66, 2, 4, 6, 21, 25, 5, 13, 9, 10, 0)
s = 94: (0, 34, 3, 4, 5, 18, 45, 5, 11, 15, 9, 0)
s = 95: (0, 41, 2, 6, 4, 15, 31, 8, 12, 10, 13, 0)
s = 96: (0, 36, 2, 5, 6, 18, 33, 5, 11, 9, 12, 0)
s = 97: (0, 50, 3, 5, 7, 19, 26, 9, 20, 8, 12, 0)
s = 98: (0, 47, 3, 4, 8, 23, 20, 7, 22, 10, 9, 0)
s = 99: (0, 39, 2, 6, 5, 14, 36, 6, 9, 9, 12, 0)
s = 100: (0, 38, 2, 3, 4, 27, 46, 7, 24, 19, 11, 0)
s = 101: (0, 31, 2, 4, 5, 17, 28, 4, 12, 10, 10, 0)
s = 102: (0, 37, 3, 6, 7, 22, 34, 4, 9, 10, 15, 0)
s = 103: (0, 44, 2, 5, 5, 26, 21, 7, 12, 12, 12, 0)
s = 104: (0, 44, 4, 5, 5, 18, 24, 5, 16, 11, 12, 0)
s = 105: (0, 36, 3, 6, 8, 15, 18, 5, 13, 13, 14, 0)
s = 106: (0, 41, 3, 4, 5, 25, 30, 8, 14, 18, 15, 0)
s = 107: (0, 43, 2, 4, 5, 26, 37, 6, 20, 10, 10, 0)
s = 108: (0, 43, 3, 3, 9, 19, 18, 5, 19, 9, 10, 0)
s = 109: (0, 47, 3, 3, 8, 25, 22, 10, 9, 18, 15, 0)
s = 110: (0, 29, 2, 3, 4, 17, 28, 5, 20, 10, 19, 0)
s = 111: (0, 31, 2, 4, 6, 18, 28, 8, 19, 10, 22, 0)
s = 112: (0, 33, 4, 4, 6, 14, 25, 6, 24, 16, 19, 0)
s = 113: (0, 38, 3, 3, 5, 28, 24, 7, 15, 19, 15, 0)
s = 114: (0, 30, 2, 5, 5, 23, 29, 5, 12, 10, 15, 0)
s = 115: (0, 56, 2, 6, 6, 22, 28, 5, 17, 13, 21, 0)
s = 116: (0, 36, 3, 4, 7, 32, 30, 5, 16, 22, 10, 0)
s = 117: (0, 50, 2, 3, 6, 13, 21, 6, 9, 15, 14, 0)
s = 118: (0, 21, 2, 4, 5, 13, 26, 5, 17, 9, 16, 0)
s = 119: (0, 42, 2, 5, 5, 29, 29, 9, 18, 14, 16, 0)
s = 120: (0, 37, 3, 4, 4, 19, 23, 7, 19, 16, 15, 0)
s = 121: (0, 46, 2, 3, 4, 14, 16, 5, 15, 17, 12, 0)
s = 122: (0, 53, 3, 3, 8, 25, 17, 5, 19, 15, 9, 0)
s = 123: (0, 40, 2, 3, 6, 19, 18, 4, 19, 14, 15, 0)
s = 124: (0, 35, 3, 3, 6, 15, 42, 4, 13, 8, 13, 0)
s = 125: (0, 54, 3, 6, 6, 24, 23, 4, 10, 20, 15, 0)
s = 126: (0, 42, 2, 4, 5, 16, 35, 5, 21, 10, 11, 0)
s = 127: (0, 36, 3, 4, 9, 20, 32, 10, 10, 10, 21, 0)
s = 128: (0, 24, 3, 4, 6, 12, 16, 5, 12, 11, 21, 0)
s = 129: (0, 21, 2, 4, 6, 19, 35, 4, 11, 9, 15, 0)
s = 130: (0, 56, 2, 4, 6, 22, 19, 7, 14, 10, 13, 0)
s = 131: (0, 38, 2, 3, 8, 28, 21, 7, 20, 9, 12, 0)
s = 132: (0, 35, 2, 3, 5, 18, 29, 7, 14, 12, 12, 0)
s = 133: (0, 32, 3, 4, 8, 15, 19, 7, 14, 18, 16, 0)
s = 134: (0, 34, 3, 5, 7, 19, 26, 8, 8, 13, 9, 0)
s = 135: (0, 47, 3, 5, 9, 17, 16, 5, 15, 14, 11, 0)
s = 136: (0, 32, 2, 4, 7, 20, 18, 6, 13, 17, 13, 0)
s = 137: (0, 27, 2, 4, 7, 20, 20, 5, 11, 13, 9, 0)
s = 138: (0, 33, 2, 6, 5, 21, 30, 7, 9, 10, 13, 0)
s = 139: (0, 38, 2, 4, 7, 17, 23, 5, 22, 7, 10, 0)
s = 140: (0, 43, 3, 4, 8, 19, 20, 7, 19, 13, 15, 0)
s = 141: (0, 27, 2, 4, 6, 19, 34, 7, 20, 7, 14, 0)
s = 142: (0, 27, 2, 4, 6, 11, 28, 6, 13, 10, 23, 0)
s = 143: (0, 26, 2, 5, 5, 28, 18, 5, 16, 9, 12, 0)
s = 144: (0, 26, 3, 6, 6, 16, 32, 6, 24, 12, 12, 0)
s = 145: (0, 38, 2, 5, 7, 14, 29, 5, 19, 9, 12, 0)
s = 146: (0, 29, 2, 4, 5, 23, 39, 9, 12, 15, 16, 0)
s = 147: (0, 25, 2, 3, 7, 16, 29, 8, 12, 12, 16, 0)
s = 148: (0, 34, 3, 4, 7, 19, 14, 6, 20, 17, 13, 0)
s = 149: (0, 41, 3, 5, 7, 15, 32, 9, 11, 15, 12, 0)
s = 150: (0, 40, 2, 8, 6, 15, 34, 6, 20, 13, 11, 0)
s = 151: (0, 36, 2, 5, 9, 22, 24, 10, 12, 7, 19, 0)
s = 152: (0, 32, 2, 5, 9, 21, 28, 5, 16, 7, 11, 0)
s = 153: (0, 61, 3, 5, 7, 13, 14, 6, 10, 15, 24, 0)
s = 154: (0, 36, 2, 3, 8, 35, 49, 5, 15, 13, 11, 0)
s = 155: (0, 41, 2, 5, 8, 34, 25, 4, 17, 13, 16, 0)
s = 156: (0, 45, 2, 3, 6, 21, 34, 4, 15, 8, 11, 0)
s = 157: (0, 33, 3, 6, 6, 24, 24, 7, 21, 12, 10, 0)
s = 158: (0, 48, 2, 5, 7, 24, 21, 6, 17, 16, 9, 0)
s = 159: (0, 30, 2, 4, 5, 28, 17, 4, 11, 11, 9, 0)
s = 160: (0, 30, 3, 7, 11, 19, 18, 5, 10, 13, 14, 0)
s = 161: (0, 61, 3, 4, 6, 25, 20, 8, 13, 13, 8, 0)
s = 162: (0, 49, 4, 3, 6, 21, 32, 7, 13, 13, 17, 0)
s = 163: (0, 34, 2, 3, 5, 24, 13, 8, 12, 8, 12, 0)
s = 164: (0, 51, 3, 3, 5, 29, 31, 5, 16, 15, 23, 0)
s = 165: (0, 53, 2, 3, 5, 15, 14, 7, 14, 23, 10, 0)
s = 166: (0, 60, 3, 6, 5, 24, 33, 5, 20, 9, 18, 0)
s = 167: (0, 30, 3, 6, 5, 24, 23, 6, 23, 13, 10, 0)
s = 168: (0, 41, 2, 4, 4, 21, 23, 8, 8, 9, 12, 0)
s = 169: (0, 54, 4, 4, 6, 27, 23, 5, 12, 14, 13, 0)
s = 170: (0, 29, 3, 5, 6, 23, 31, 6, 12, 10, 15, 0)
s = 171: (0, 27, 3, 5, 6, 20, 20, 5, 13, 19, 15, 0)
s = 172: (0, 25, 2, 6, 8, 16, 32, 8, 17, 9, 12, 0)
s = 173: (0, 54, 2, 3, 6, 18, 22, 6, 20, 9, 12, 0)
s = 174: (0, 34, 3, 5, 5, 15, 14, 9, 8, 11, 8, 0)
s = 175: (0, 36, 3, 4, 6, 17, 26, 6, 20, 19, 10, 0)
s = 176: (0, 48, 2, 5, 7, 22, 31, 7, 11, 9, 11, 0)
s = 177: (0, 55, 2, 7, 6, 26, 19, 7, 13, 12, 20, 0)
s = 178: (0, 37, 2, 6, 5, 17, 39, 4, 13, 9, 10, 0)
s = 179: (0, 44, 2, 3, 6, 38, 35, 7, 11, 9, 13, 0)
s = 180: (0, 47, 3, 4, 5, 21, 24, 4, 21, 16, 13, 0)
s = 181: (0, 38, 3, 6, 8, 21, 36, 7, 14, 13, 9, 0)
s = 182: (0, 25, 3, 6, 7, 17, 21, 7, 10, 8, 16, 0)
s = 183: (0, 40, 3, 4, 6, 13, 28, 8, 15, 14, 10, 0)
s = 184: (0, 33, 3, 5, 5, 17, 20, 6, 12, 16, 11, 0)
s = 185: (0, 57, 2, 6, 6, 15, 31, 5, 15, 10, 12, 0)
s = 186: (0, 27, 2, 5, 10, 12, 22, 6, 16, 15, 12, 0)
s = 187: (0, 47, 2, 6, 11, 12, 21, 6, 8, 20, 10, 0)
s = 188: (0, 48, 3, 5, 6, 15, 34, 5, 21, 10, 16, 0)
s = 189: (0, 62, 3, 6, 6, 19, 16, 7, 14, 13, 9, 0)
s = 190: (0, 38, 2, 5, 5, 20, 23, 5, 15, 13, 22, 0)
s = 191: (0, 48, 2, 3, 10, 34, 23, 5, 17, 12, 10, 0)
s = 192: (0, 69, 2, 3, 5, 19, 21, 7, 20, 12, 18, 0)
s = 193: (0, 33, 2, 5, 6, 14, 22, 4, 15, 12, 12, 0)
s = 194: (0, 44, 3, 4, 8, 23, 19, 6, 15, 15, 13, 0)
s = 195: (0, 43, 3, 3, 7, 19, 24, 7, 15, 14, 15, 0)
s = 196: (0, 27, 2, 6, 9, 15, 20, 9, 19, 14, 10, 0)
s = 197: (0, 59, 2, 5, 8, 23, 37, 9, 12, 13, 15, 0)
s = 198: (0, 33, 2, 3, 4, 18, 21, 7, 13, 15, 11, 0)
s = 199: (0, 46, 2, 3, 5, 12, 22, 4, 18, 13, 14, 0)
s = 200: (0, 72, 2, 6, 9, 19, 26, 6, 20, 12, 13, 0)
------------------------------------------------------------------------
RESOURCE k = 2
s = 1: (0, 79, 9, 7, 15, 67, 71, 4, 26, 42, 32, 0)
s = 2: (0, 54, 6, 11, 12, 57, 69, 4, 29, 43, 31, 0)
s = 3: (0, 58, 7, 11, 6, 36, 101, 3, 22, 41, 37, 0)
s = 4: (0, 56, 12, 6, 9, 27, 74, 5, 39, 55, 34, 0)
s = 5: (0, 82, 10, 8, 14, 87, 64, 4, 44, 69, 43, 0)
s = 6: (0, 82, 6, 7, 11, 25, 84, 6, 31, 55, 30, 0)
s = 7: (0, 51, 9, 9, 10, 28, 110, 5, 33, 42, 30, 0)
s = 8: (0, 52, 10, 10, 7, 37, 58, 4, 37, 45, 34, 0)
s = 9: (0, 48, 11, 6, 13, 33, 39, 5, 30, 83, 18, 0)
s = 10: (0, 57, 6, 12, 8, 52, 57, 5, 25, 51, 36, 0)
s = 11: (0, 63, 10, 13, 9, 29, 57, 4, 23, 51, 41, 0)
s = 12: (0, 69, 5, 10, 11, 51, 89, 4, 48, 63, 26, 0)
s = 13: (0, 54, 9, 7, 10, 45, 53, 4, 31, 61, 35, 0)
s = 14: (0, 59, 8, 12, 8, 44, 72, 4, 52, 39, 41, 0)
s = 15: (0, 76, 8, 12, 9, 68, 57, 3, 37, 58, 18, 0)
s = 16: (0, 60, 11, 7, 7, 43, 71, 7, 23, 40, 40, 0)
s = 17: (0, 78, 9, 7, 9, 43, 56, 6, 26, 31, 41, 0)
s = 18: (0, 70, 12, 11, 9, 35, 92, 5, 25, 35, 34, 0)
s = 19: (0, 48, 8, 9, 13, 52, 103, 6, 42, 59, 29, 0)
s = 20: (0, 39, 9, 8, 15, 41, 115, 3, 32, 38, 36, 0)
s = 21: (0, 75, 11, 9, 7, 33, 107, 5, 28, 65, 46, 0)
s = 22: (0, 99, 9, 10, 11, 60, 51, 5, 34, 50, 39, 0)
s = 23: (0, 59, 13, 15, 13, 33, 87, 6, 29, 42, 28, 0)
s = 24: (0, 67, 7, 10, 8, 44, 62, 5, 27, 61, 38, 0)
s = 25: (0, 64, 10, 7, 7, 46, 53, 4, 25, 57, 23, 0)
s = 26: (0, 42, 6, 7, 9, 37, 109, 4, 46, 84, 35, 0)
s = 27: (0, 69, 9, 8, 9, 47, 88, 4, 21, 36, 37, 0)
s = 28: (0, 43, 10, 8, 9, 42, 74, 3, 21, 49, 39, 0)
s = 29: (0, 86, 12, 10, 7, 47, 95, 5, 27, 41, 48, 0)
s = 30: (0, 77, 9, 6, 9, 26, 60, 5, 34, 40, 34, 0)
s = 31: (0, 71, 10, 8, 10, 51, 42, 6, 33, 32, 32, 0)
s = 32: (0, 42, 7, 6, 8, 38, 104, 4, 30, 54, 32, 0)
s = 33: (0, 80, 6, 7, 10, 44, 53, 5, 23, 35, 31, 0)
s = 34: (0, 57, 7, 14, 10, 66, 94, 5, 28, 50, 25, 0)
s = 35: (0, 55, 7, 10, 11, 54, 49, 4, 29, 55, 31, 0)
s = 36: (0, 45, 12, 8, 8, 36, 93, 5, 39, 61, 27, 0)
s = 37: (0, 60, 10, 6, 11, 49, 73, 7, 22, 30, 26, 0)
s = 38: (0, 53, 8, 5, 13, 48, 62, 6, 26, 56, 21, 0)
s = 39: (0, 63, 8, 5, 11, 52, 73, 7, 36, 41, 35, 0)
s = 40: (0, 98, 6, 10, 10, 46, 57, 3, 29, 44, 38, 0)
s = 41: (0, 84, 6, 10, 10, 45, 89, 4, 24, 41, 24, 0)
s = 42: (0, 61, 8, 12, 7, 54, 101, 5, 25, 35, 43, 0)
s = 43: (0, 96, 7, 8, 9, 27, 89, 4, 21, 31, 35, 0)
s = 44: (0, 41, 13, 13, 14, 44, 48, 4, 29, 63, 28, 0)
s = 45: (0, 77, 9, 8, 6, 70, 63, 4, 39, 67, 23, 0)
s = 46: (0, 80, 9, 8, 12, 30, 80, 4, 18, 55, 30, 0)
s = 47: (0, 78, 11, 7, 9, 46, 61, 4, 22, 35, 25, 0)
s = 48: (0, 61, 6, 5, 15, 47, 111, 5, 29, 48, 44, 0)
s = 49: (0, 66, 7, 13, 8, 29, 88, 5, 31, 38, 45, 0)
s = 50: (0, 81, 8, 7, 12, 38, 48, 4, 41, 33, 35, 0)
s = 51: (0, 54, 12, 12, 8, 44, 63, 4, 43, 32, 45, 0)
s = 52: (0, 65, 5, 11, 7, 49, 45, 5, 21, 77, 35, 0)
s = 53: (0, 73, 8, 6, 10, 39, 50, 6, 37, 77, 33, 0)
s = 54: (0, 39, 8, 6, 9, 62, 92, 6, 26, 52, 24, 0)
s = 55: (0, 53, 7, 7, 6, 66, 54, 4, 25, 59, 19, 0)
s = 56: (0, 71, 8, 7, 13, 27, 74, 4, 29, 54, 37, 0)
s = 57: (0, 81, 9, 7, 10, 37, 58, 6, 24, 41, 26, 0)
s = 58: (0, 92, 7, 8, 8, 53, 51, 4, 27, 38, 48, 0)
s = 59: (0, 39, 7, 6, 8, 58, 60, 5, 36, 36, 33, 0)
s = 60: (0, 47, 7, 8, 9, 55, 52, 4, 28, 61, 20, 0)
s = 61: (0, 53, 10, 11, 10, 31, 125, 6, 39, 44, 27, 0)
s = 62: (0, 62, 9, 7, 13, 45, 67, 4, 46, 58, 33, 0)
s = 63: (0, 62, 5, 7, 8, 43, 83, 4, 35, 71, 29, 0)
s = 64: (0, 60, 6, 6, 13, 54, 50, 3, 26, 76, 24, 0)
s = 65: (0, 41, 7, 12, 7, 40, 57, 4, 24, 59, 22, 0)
s = 66: (0, 78, 10, 7, 13, 40, 49, 3, 43, 56, 43, 0)
s = 67: (0, 43, 7, 6, 8, 48, 69, 4, 17, 38, 30, 0)
s = 68: (0, 47, 6, 5, 6, 67, 56, 6, 23, 54, 33, 0)
s = 69: (0, 43, 10, 9, 9, 54, 76, 4, 33, 51, 19, 0)
s = 70: (0, 44, 9, 7, 16, 40, 61, 6, 25, 32, 26, 0)
s = 71: (0, 75, 8, 6, 12, 60, 55, 5, 24, 71, 32, 0)
s = 72: (0, 51, 12, 8, 7, 73, 105, 5, 41, 54, 29, 0)
s = 73: (0, 67, 11, 5, 8, 38, 49, 5, 18, 52, 38, 0)
s = 74: (0, 105, 10, 9, 7, 33, 57, 4, 28, 46, 20, 0)
s = 75: (0, 69, 11, 9, 6, 44, 42, 3, 30, 29, 31, 0)
s = 76: (0, 66, 10, 11, 13, 43, 85, 5, 22, 71, 50, 0)
s = 77: (0, 85, 7, 11, 11, 58, 70, 3, 42, 48, 30, 0)
s = 78: (0, 69, 10, 11, 6, 36, 111, 5, 26, 45, 44, 0)
s = 79: (0, 55, 6, 11, 14, 43, 94, 4, 38, 32, 45, 0)
s = 80: (0, 61, 8, 8, 12, 39, 85, 6, 24, 71, 24, 0)
s = 81: (0, 65, 8, 7, 7, 42, 68, 6, 26, 66, 23, 0)
s = 82: (0, 79, 6, 10, 14, 65, 78, 4, 35, 48, 28, 0)
s = 83: (0, 48, 7, 7, 7, 43, 111, 5, 34, 48, 33, 0)
s = 84: (0, 72, 7, 9, 14, 27, 78, 4, 24, 32, 23, 0)
s = 85: (0, 54, 5, 8, 7, 72, 102, 3, 49, 35, 35, 0)
s = 86: (0, 93, 7, 7, 14, 34, 57, 4, 18, 38, 48, 0)
s = 87: (0, 112, 8, 9, 9, 45, 55, 4, 29, 39, 19, 0)
s = 88: (0, 60, 7, 6, 8, 54, 73, 3, 26, 48, 40, 0)
s = 89: (0, 72, 8, 10, 9, 32, 98, 5, 28, 42, 31, 0)
s = 90: (0, 77, 10, 9, 14, 45, 60, 3, 29, 52, 25, 0)
s = 91: (0, 54, 9, 6, 6, 29, 78, 4, 22, 41, 39, 0)
s = 92: (0, 68, 5, 9, 12, 58, 44, 3, 42, 45, 21, 0)
s = 93: (0, 107, 6, 8, 9, 47, 75, 3, 27, 38, 23, 0)
s = 94: (0, 55, 9, 7, 8, 39, 134, 4, 22, 63, 21, 0)
s = 95: (0, 66, 8, 11, 6, 34, 93, 6, 26, 41, 30, 0)
s = 96: (0, 57, 8, 10, 9, 40, 99, 4, 24, 39, 26, 0)
s = 97: (0, 80, 10, 10, 12, 42, 76, 6, 42, 33, 26, 0)
s = 98: (0, 76, 9, 8, 13, 52, 58, 5, 46, 40, 20, 0)
s = 99: (0, 63, 7, 11, 8, 30, 107, 4, 18, 39, 26, 0)
s = 100: (0, 61, 7, 5, 6, 60, 137, 5, 51, 81, 25, 0)
s = 101: (0, 49, 8, 7, 8, 38, 82, 3, 25, 43, 22, 0)
s = 102: (0, 60, 9, 11, 12, 48, 100, 3, 19, 40, 33, 0)
s = 103: (0, 71, 5, 9, 7, 58, 62, 5, 26, 50, 26, 0)
s = 104: (0, 71, 13, 10, 9, 41, 72, 3, 34, 46, 27, 0)
s = 105: (0, 58, 10, 11, 12, 33, 54, 3, 28, 57, 32, 0)
s = 106: (0, 66, 9, 8, 8, 55, 90, 6, 28, 77, 34, 0)
s = 107: (0, 70, 7, 7, 9, 59, 111, 4, 43, 43, 22, 0)
s = 108: (0, 69, 11, 5, 15, 41, 54, 4, 40, 39, 22, 0)
s = 109: (0, 77, 9, 6, 13, 56, 64, 7, 18, 77, 33, 0)
s = 110: (0, 47, 7, 5, 7, 39, 83, 4, 42, 44, 42, 0)
s = 111: (0, 51, 7, 8, 10, 40, 82, 6, 41, 42, 51, 0)
s = 112: (0, 54, 13, 7, 10, 31, 73, 4, 50, 67, 42, 0)
s = 113: (0, 62, 12, 6, 8, 62, 71, 5, 31, 82, 34, 0)
s = 114: (0, 49, 6, 9, 8, 50, 87, 4, 25, 42, 34, 0)
s = 115: (0, 90, 8, 12, 10, 49, 83, 3, 35, 56, 48, 0)
s = 116: (0, 58, 10, 7, 12, 71, 88, 4, 33, 96, 22, 0)
s = 117: (0, 81, 8, 6, 10, 28, 63, 4, 18, 63, 31, 0)
s = 118: (0, 34, 7, 8, 9, 28, 77, 4, 35, 38, 35, 0)
s = 119: (0, 68, 8, 9, 8, 64, 85, 6, 38, 59, 36, 0)
s = 120: (0, 59, 9, 8, 6, 43, 69, 5, 40, 67, 33, 0)
s = 121: (0, 75, 8, 5, 6, 30, 47, 4, 32, 74, 28, 0)
s = 122: (0, 86, 9, 6, 12, 55, 49, 4, 41, 62, 19, 0)
s = 123: (0, 64, 5, 5, 9, 42, 53, 3, 40, 58, 34, 0)
s = 124: (0, 57, 12, 6, 9, 34, 126, 3, 28, 32, 29, 0)
s = 125: (0, 87, 11, 12, 9, 54, 68, 3, 20, 84, 34, 0)
s = 126: (0, 68, 6, 8, 7, 35, 103, 3, 44, 43, 25, 0)
s = 127: (0, 59, 10, 7, 15, 43, 96, 7, 21, 42, 48, 0)
s = 128: (0, 39, 9, 8, 9, 26, 48, 4, 25, 45, 47, 0)
s = 129: (0, 34, 8, 8, 10, 42, 104, 3, 23, 36, 34, 0)
s = 130: (0, 90, 6, 8, 9, 49, 57, 5, 29, 43, 30, 0)
s = 131: (0, 61, 7, 5, 12, 62, 62, 5, 42, 36, 27, 0)
s = 132: (0, 56, 8, 5, 8, 39, 87, 5, 30, 50, 28, 0)
s = 133: (0, 51, 9, 8, 12, 34, 57, 5, 29, 78, 35, 0)
s = 134: (0, 55, 12, 9, 12, 42, 76, 5, 17, 53, 20, 0)
s = 135: (0, 76, 9, 10, 15, 39, 46, 3, 32, 61, 24, 0)
s = 136: (0, 52, 8, 7, 12, 44, 52, 4, 27, 72, 30, 0)
s = 137: (0, 44, 6, 8, 12, 44, 58, 4, 23, 56, 21, 0)
s = 138: (0, 53, 6, 11, 9, 47, 90, 5, 19, 40, 29, 0)
s = 139: (0, 62, 7, 7, 12, 38, 69, 4, 48, 30, 21, 0)
s = 140: (0, 70, 10, 8, 12, 42, 59, 5, 40, 54, 34, 0)
s = 141: (0, 43, 8, 7, 10, 42, 101, 5, 42, 30, 32, 0)
s = 142: (0, 43, 8, 7, 10, 25, 83, 4, 27, 43, 52, 0)
s = 143: (0, 42, 8, 9, 8, 62, 53, 4, 34, 39, 26, 0)
s = 144: (0, 41, 9, 12, 10, 34, 95, 4, 51, 48, 26, 0)
s = 145: (0, 62, 8, 9, 11, 30, 85, 3, 40, 39, 27, 0)
s = 146: (0, 47, 8, 7, 8, 50, 117, 6, 25, 61, 36, 0)
s = 147: (0, 41, 8, 5, 11, 35, 87, 6, 24, 48, 35, 0)
s = 148: (0, 55, 9, 8, 11, 41, 40, 4, 41, 74, 29, 0)
s = 149: (0, 67, 10, 9, 11, 33, 94, 6, 22, 64, 27, 0)
s = 150: (0, 65, 6, 15, 10, 33, 102, 4, 42, 54, 24, 0)
s = 151: (0, 58, 7, 10, 14, 49, 70, 7, 25, 30, 44, 0)
s = 152: (0, 51, 6, 10, 15, 46, 82, 4, 33, 27, 25, 0)
s = 153: (0, 98, 10, 10, 11, 28, 41, 4, 21, 62, 54, 0)
s = 154: (0, 59, 8, 6, 12, 78, 147, 3, 32, 53, 24, 0)
s = 155: (0, 66, 8, 9, 13, 75, 74, 3, 37, 53, 37, 0)
s = 156: (0, 73, 5, 6, 10, 46, 101, 3, 32, 31, 24, 0)
s = 157: (0, 53, 11, 11, 10, 54, 72, 5, 45, 52, 23, 0)
s = 158: (0, 77, 6, 9, 12, 54, 61, 4, 36, 67, 21, 0)
s = 159: (0, 49, 8, 8, 9, 61, 49, 3, 23, 45, 19, 0)
s = 160: (0, 48, 10, 13, 18, 43, 53, 3, 20, 53, 31, 0)
s = 161: (0, 99, 9, 8, 10, 56, 58, 6, 27, 53, 18, 0)
s = 162: (0, 80, 13, 5, 9, 46, 94, 5, 27, 54, 37, 0)
s = 163: (0, 55, 7, 5, 9, 53, 39, 5, 25, 32, 27, 0)
s = 164: (0, 82, 12, 6, 8, 65, 92, 3, 35, 63, 53, 0)
s = 165: (0, 86, 8, 5, 8, 33, 40, 5, 29, 96, 23, 0)
s = 166: (0, 97, 11, 12, 7, 54, 98, 4, 42, 39, 40, 0)
s = 167: (0, 49, 9, 11, 8, 53, 69, 4, 50, 55, 23, 0)
s = 168: (0, 66, 8, 8, 7, 47, 67, 6, 17, 37, 27, 0)
s = 169: (0, 87, 13, 8, 9, 61, 67, 4, 24, 60, 29, 0)
s = 170: (0, 47, 10, 10, 10, 50, 93, 4, 25, 42, 34, 0)
s = 171: (0, 43, 10, 10, 9, 44, 59, 3, 28, 79, 34, 0)
s = 172: (0, 41, 7, 12, 13, 36, 95, 6, 35, 39, 26, 0)
s = 173: (0, 87, 6, 6, 9, 39, 65, 4, 42, 39, 27, 0)
s = 174: (0, 55, 12, 9, 8, 34, 40, 6, 17, 46, 19, 0)
s = 175: (0, 58, 10, 7, 9, 37, 77, 4, 43, 82, 21, 0)
s = 176: (0, 78, 6, 10, 12, 49, 92, 5, 22, 35, 25, 0)
s = 177: (0, 89, 6, 13, 9, 58, 57, 5, 27, 50, 44, 0)
s = 178: (0, 60, 7, 11, 8, 38, 117, 3, 27, 36, 23, 0)
s = 179: (0, 71, 6, 6, 10, 86, 105, 5, 23, 39, 28, 0)
s = 180: (0, 76, 9, 8, 8, 46, 72, 3, 43, 67, 28, 0)
s = 181: (0, 61, 10, 11, 12, 47, 106, 5, 29, 54, 20, 0)
s = 182: (0, 40, 12, 11, 11, 38, 62, 5, 22, 32, 36, 0)
s = 183: (0, 64, 12, 7, 10, 29, 83, 6, 31, 59, 22, 0)
s = 184: (0, 53, 10, 10, 8, 37, 60, 4, 26, 67, 25, 0)
s = 185: (0, 93, 5, 12, 10, 34, 91, 3, 31, 40, 28, 0)
s = 186: (0, 43, 6, 10, 16, 27, 66, 4, 34, 65, 26, 0)
s = 187: (0, 76, 8, 12, 17, 25, 62, 4, 18, 83, 22, 0)
s = 188: (0, 78, 9, 9, 10, 34, 102, 3, 45, 41, 35, 0)
s = 189: (0, 100, 9, 11, 10, 42, 47, 5, 30, 55, 20, 0)
s = 190: (0, 61, 5, 9, 8, 45, 69, 4, 31, 53, 49, 0)
s = 191: (0, 78, 7, 6, 16, 75, 69, 4, 36, 50, 22, 0)
s = 192: (0, 112, 5, 6, 8, 42, 61, 5, 43, 49, 41, 0)
s = 193: (0, 53, 7, 9, 10, 31, 65, 3, 32, 51, 26, 0)
s = 194: (0, 71, 12, 7, 12, 51, 56, 4, 32, 65, 30, 0)
s = 195: (0, 69, 11, 5, 11, 43, 71, 5, 31, 61, 34, 0)
s = 196: (0, 43, 7, 11, 14, 33, 59, 6, 40, 60, 23, 0)
s = 197: (0, 95, 8, 10, 12, 52, 109, 6, 25, 55, 34, 0)
s = 198: (0, 54, 7, 6, 6, 40, 61, 5, 28, 61, 24, 0)
s = 199: (0, 74, 7, 5, 7, 27, 65, 3, 39, 56, 32, 0)
s = 200: (0, 116, 6, 12, 14, 42, 77, 4, 42, 49, 29, 0)
************************************************************************
ES/LS-VALUES:
jobnr.   ES(i)    LS(i)
------------------------------------------------------------------------
  0        0        0
  1        0       67
  2        0       66
  3        0       58
  4        2       68
  5        2       60
  6        2       60
  7       11       70
  8        9       76
  9       12       72
 10       12       76
 11       19       80
************************************************************************
BIG-M-VALUES:
M1 = 38, M2 = 196
************************************************************************
